(set-info :source |printed by MathSAT|)
(declare-fun |.x{1389}| () Int)
(declare-fun |.x{1445}| () Int)
(declare-fun |.x{1390}| () (Array Int Int))
(declare-fun |.x{1446}| () (Array Int Int))
(declare-fun |.x{1391}| () (Array Int Int))
(declare-fun |.x{1447}| () (Array Int Int))
(declare-fun |.x{1392}| () (Array Int (Array Int Int)))
(declare-fun |.x{1448}| () (Array Int (Array Int Int)))
(declare-fun |.x{1393}| () Int)
(declare-fun |.x{1449}| () Int)
(declare-fun |.x{1394}| () Int)
(declare-fun |.x{1450}| () Int)
(declare-fun |.x{1395}| () (Array Int Int))
(declare-fun |.x{1451}| () (Array Int Int))
(declare-fun |.x{1396}| () (Array Int Int))
(declare-fun |.x{1452}| () (Array Int Int))
(declare-fun |.x{1397}| () Int)
(declare-fun |.x{1453}| () Int)
(declare-fun |.x{1398}| () Int)
(declare-fun |.x{1454}| () Int)
(declare-fun |.x{1399}| () Int)
(declare-fun |.x{1455}| () Int)
(declare-fun |.x{1400}| () Int)
(declare-fun |.x{1456}| () Int)
(declare-fun |.x{1401}| () Int)
(declare-fun |.x{1457}| () Int)
(declare-fun |.x{1402}| () Int)
(declare-fun |.x{1458}| () Int)
(declare-fun |.x{1403}| () Int)
(declare-fun |.x{1459}| () Int)
(declare-fun |.x{1404}| () Int)
(declare-fun |.x{1460}| () Int)
(declare-fun |.x{1405}| () Int)
(declare-fun |.x{1461}| () Int)
(declare-fun |.x{1406}| () Int)
(declare-fun |.x{1462}| () Int)
(declare-fun |.x{1407}| () Int)
(declare-fun |.x{1463}| () Int)
(declare-fun |.x{1408}| () Int)
(declare-fun |.x{1464}| () Int)
(declare-fun |.x{1409}| () Int)
(declare-fun |.x{1465}| () Int)
(declare-fun |.x{1410}| () Int)
(declare-fun |.x{1466}| () Int)
(declare-fun |.x{1411}| () Int)
(declare-fun |.x{1467}| () Int)
(declare-fun |.x{1412}| () Int)
(declare-fun |.x{1468}| () Int)
(declare-fun |.x{1413}| () Int)
(declare-fun |.x{1469}| () Int)
(declare-fun |.x{1414}| () Int)
(declare-fun |.x{1470}| () Int)
(declare-fun |.x{1415}| () Int)
(declare-fun |.x{1471}| () Int)
(declare-fun |.x{1444}| () Bool)
(declare-fun |.x{1416}| () Bool)
(declare-fun |.loc{5}| () Bool)
(declare-fun |.loc{9}| () Bool)
(declare-fun |.loc{6}| () Bool)
(declare-fun |.loc{10}| () Bool)
(declare-fun |.loc{7}| () Bool)
(declare-fun |.loc{11}| () Bool)
(declare-fun |.loc{8}| () Bool)
(declare-fun |.loc{12}| () Bool)
(declare-fun |.x{618}| () Int)
(declare-fun |.x{616}| () Int)
(declare-fun |.x{111}| () (Array Int Int))
(define-fun .def_66 () Bool (! |.loc{6}| :next |.loc{10}|))
(define-fun .def_183 () Bool (not .def_66))
(define-fun .def_64 () Bool (! |.loc{5}| :next |.loc{9}|))
(define-fun .def_537 () Bool (and .def_64 .def_183))
(define-fun .def_68 () Bool (! |.loc{7}| :next |.loc{11}|))
(define-fun .def_105 () Bool (not .def_68))
(define-fun .def_538 () Bool (and .def_105 .def_537))
(define-fun .def_70 () Bool (! |.loc{8}| :next |.loc{12}|))
(define-fun .def_85 () Bool (not .def_70))
(define-fun .def_539 () Bool (and .def_85 .def_538))
(define-fun .def_18 () Int (! |.x{1394}| :next |.x{1450}|))
(define-fun .def_16 () Int (! |.x{1393}| :next |.x{1449}|))
(define-fun .def_532 () Bool (= .def_16 .def_18))
(define-fun .def_26 () Int (! |.x{1398}| :next |.x{1454}|))
(define-fun .def_24 () Int (! |.x{1397}| :next |.x{1453}|))
(define-fun .def_531 () Bool (= .def_24 .def_26))
(define-fun .def_533 () Bool (and .def_531 .def_532))
(define-fun .def_62 () Bool (! |.x{1444}| :next |.x{1416}|))
(define-fun .def_530 () Bool (not .def_62))
(define-fun .def_534 () Bool (and .def_530 .def_533))
(define-fun .def_22 () (Array Int Int) (! |.x{1396}| :next |.x{1452}|))
(define-fun .def_20 () (Array Int Int) (! |.x{1395}| :next |.x{1451}|))
(define-fun .def_529 () Bool (= .def_20 .def_22))
(define-fun .def_535 () Bool (and .def_529 .def_534))
(define-fun .def_12 () (Array Int Int) (! |.x{1391}| :next |.x{1447}|))
(define-fun .def_10 () (Array Int Int) (! |.x{1390}| :next |.x{1446}|))
(define-fun .def_528 () Bool (= .def_10 .def_12))
(define-fun .def_536 () Bool (and .def_528 .def_535))
(define-fun .def_540 () Bool (! (and .def_536 .def_539) :init true))
(define-fun .def_525 () Bool (= .def_26 |.x{1454}|))
(define-fun .def_523 () Bool (= .def_22 |.x{1452}|))
(define-fun .def_521 () Bool (= .def_18 |.x{1450}|))
(define-fun .def_14 () (Array Int (Array Int Int)) (! |.x{1392}| :next |.x{1448}|))
(define-fun .def_519 () Bool (= .def_14 |.x{1448}|))
(define-fun .def_8 () Int (! |.x{1389}| :next |.x{1445}|))
(define-fun .def_517 () Bool (= .def_8 |.x{1445}|))
(define-fun .def_516 () Bool (= .def_12 |.x{1447}|))
(define-fun .def_518 () Bool (and .def_516 .def_517))
(define-fun .def_520 () Bool (and .def_518 .def_519))
(define-fun .def_522 () Bool (and .def_520 .def_521))
(define-fun .def_524 () Bool (and .def_522 .def_523))
(define-fun .def_526 () Bool (and .def_524 .def_525))
(define-fun .def_50 () Int (! |.x{1410}| :next |.x{1466}|))
(define-fun .def_506 () Bool (= .def_50 |.x{1466}|))
(define-fun .def_54 () Int (! |.x{1412}| :next |.x{1468}|))
(define-fun .def_505 () Bool (= .def_54 |.x{1468}|))
(define-fun .def_507 () Bool (and .def_505 .def_506))
(define-fun .def_52 () Int (! |.x{1411}| :next |.x{1467}|))
(define-fun .def_83 () Bool (= .def_52 |.x{1467}|))
(define-fun .def_48 () Int (! |.x{1409}| :next |.x{1465}|))
(define-fun .def_79 () Bool (= .def_48 |.x{1465}|))
(define-fun .def_44 () Int (! |.x{1407}| :next |.x{1463}|))
(define-fun .def_77 () Bool (= .def_44 |.x{1463}|))
(define-fun .def_46 () Int (! |.x{1408}| :next |.x{1464}|))
(define-fun .def_76 () Bool (= .def_46 |.x{1464}|))
(define-fun .def_78 () Bool (and .def_76 .def_77))
(define-fun .def_80 () Bool (and .def_78 .def_79))
(define-fun .def_81 () Bool (and .def_64 .def_80))
(define-fun .def_82 () Bool (and .def_66 .def_81))
(define-fun .def_84 () Bool (and .def_82 .def_83))
(define-fun .def_226 () Bool (and .def_68 .def_84))
(define-fun .def_227 () Bool (and .def_85 .def_226))
(define-fun .def_92 () Bool (= .def_10 |.x{1446}|))
(define-fun .def_482 () Bool (and .def_92 .def_227))
(define-fun .def_483 () Bool (and |.x{1416}| .def_482))
(define-fun .def_28 () Int (! |.x{1399}| :next |.x{1455}|))
(define-fun .def_107 () Bool (= .def_28 |.x{1455}|))
(define-fun .def_484 () Bool (and .def_107 .def_483))
(define-fun .def_40 () Int (! |.x{1405}| :next |.x{1461}|))
(define-fun .def_144 () Bool (= .def_40 |.x{1461}|))
(define-fun .def_485 () Bool (and .def_144 .def_484))
(define-fun .def_476 () (Array Int Int) (store .def_10 .def_52 0))
(define-fun .def_477 () (Array Int Int) (store .def_476 .def_28 0))
(define-fun .def_478 () Bool (= |.x{1446}| .def_477))
(define-fun .def_475 () Bool (= |.x{1464}| 0))
(define-fun .def_479 () Bool (and .def_475 .def_478))
(define-fun .def_480 () Bool (or .def_62 .def_479))
(define-fun .def_471 () Bool (= |.x{1461}| |.x{1464}|))
(define-fun .def_472 () Bool (or |.x{1416}| .def_471))
(define-fun .def_468 () Bool (and .def_70 .def_105))
(define-fun .def_469 () Bool (and .def_183 .def_468))
(define-fun .def_260 () Bool (not .def_64))
(define-fun .def_470 () Bool (and .def_260 .def_469))
(define-fun .def_473 () Bool (and .def_470 .def_472))
(define-fun .def_113 () Bool (= .def_62 |.x{1416}|))
(define-fun .def_474 () Bool (and .def_113 .def_473))
(define-fun .def_481 () Bool (and .def_474 .def_480))
(define-fun .def_486 () Bool (or .def_481 .def_485))
(define-fun .def_232 () Bool (not |.loc{10}|))
(define-fun .def_465 () Bool (and |.loc{12}| .def_232))
(define-fun .def_466 () Bool (and .def_232 .def_465))
(define-fun .def_96 () Bool (not |.loc{11}|))
(define-fun .def_467 () Bool (and .def_96 .def_466))
(define-fun .def_487 () Bool (and .def_467 .def_486))
(define-fun .def_30 () Int (! |.x{1400}| :next |.x{1456}|))
(define-fun .def_256 () Bool (= .def_30 0))
(define-fun .def_462 () Bool (or .def_62 .def_256))
(define-fun .def_246 () Bool (and .def_66 .def_80))
(define-fun .def_247 () Bool (and .def_83 .def_246))
(define-fun .def_248 () Bool (and .def_68 .def_247))
(define-fun .def_249 () Bool (and .def_85 .def_248))
(define-fun .def_455 () Bool (and |.loc{10}| .def_249))
(define-fun .def_456 () Bool (and .def_92 .def_455))
(define-fun .def_457 () Bool (and |.loc{11}| .def_456))
(define-fun .def_458 () Bool (and .def_260 .def_457))
(define-fun .def_459 () Bool (and .def_107 .def_458))
(define-fun .def_111 () Bool (not |.loc{12}|))
(define-fun .def_460 () Bool (and .def_111 .def_459))
(define-fun .def_461 () Bool (and .def_113 .def_460))
(define-fun .def_463 () Bool (and .def_461 .def_462))
(define-fun .def_464 () Bool (and .def_144 .def_463))
(define-fun .def_488 () Bool (or .def_464 .def_487))
(define-fun .def_58 () Int (! |.x{1414}| :next |.x{1470}|))
(define-fun .def_89 () Bool (= .def_58 |.x{1470}|))
(define-fun .def_56 () Int (! |.x{1413}| :next |.x{1469}|))
(define-fun .def_87 () Bool (= .def_56 |.x{1469}|))
(define-fun .def_451 () Bool (and .def_87 .def_89))
(define-fun .def_452 () Bool (and |.loc{9}| .def_451))
(define-fun .def_60 () Int (! |.x{1415}| :next |.x{1471}|))
(define-fun .def_94 () Bool (= .def_60 |.x{1471}|))
(define-fun .def_453 () Bool (and .def_94 .def_452))
(define-fun .def_109 () Bool (= .def_30 |.x{1456}|))
(define-fun .def_454 () Bool (and .def_109 .def_453))
(define-fun .def_489 () Bool (and .def_454 .def_488))
(define-fun .def_38 () Int (! |.x{1404}| :next |.x{1460}|))
(define-fun .def_423 () Int (* 4 .def_38))
(define-fun .def_431 () Int (+ .def_423 .def_44))
(define-fun .def_131 () (Array Int Int) (select .def_14 .def_28))
(define-fun .def_432 () Int (select .def_131 .def_431))
(define-fun .def_433 () Bool (= |.x{1470}| .def_432))
(define-fun .def_346 () Bool (<= 100000 .def_38))
(define-fun .def_429 () Bool (not .def_346))
(define-fun .def_434 () Bool (and .def_429 .def_433))
(define-fun .def_428 () Bool (= |.x{1456}| |.x{1469}|))
(define-fun .def_435 () Bool (and .def_428 .def_434))
(define-fun .def_425 () Int (+ .def_423 .def_48))
(define-fun .def_125 () (Array Int Int) (select .def_14 .def_52))
(define-fun .def_426 () Int (select .def_125 .def_425))
(define-fun .def_427 () Bool (= |.x{1471}| .def_426))
(define-fun .def_436 () Bool (and .def_427 .def_435))
(define-fun .def_420 () Bool (= |.x{1470}| |.x{1471}|))
(define-fun .def_421 () Int (ite .def_420 1 0))
(define-fun .def_422 () Bool (= |.x{1469}| .def_421))
(define-fun .def_437 () Bool (and .def_422 .def_436))
(define-fun .def_438 () Bool (or .def_62 .def_437))
(define-fun .def_310 () Bool (and .def_81 .def_83))
(define-fun .def_439 () Bool (and .def_310 .def_438))
(define-fun .def_440 () Bool (and .def_68 .def_439))
(define-fun .def_441 () Bool (and .def_85 .def_440))
(define-fun .def_442 () Bool (and |.loc{10}| .def_441))
(define-fun .def_443 () Bool (and .def_92 .def_442))
(define-fun .def_444 () Bool (and |.loc{11}| .def_443))
(define-fun .def_445 () Bool (and .def_183 .def_444))
(define-fun .def_446 () Bool (and .def_107 .def_445))
(define-fun .def_447 () Bool (and .def_111 .def_446))
(define-fun .def_448 () Bool (and .def_113 .def_447))
(define-fun .def_117 () Bool (not |.loc{9}|))
(define-fun .def_449 () Bool (and .def_117 .def_448))
(define-fun .def_450 () Bool (and .def_144 .def_449))
(define-fun .def_490 () Bool (or .def_450 .def_489))
(define-fun .def_32 () Int (! |.x{1401}| :next |.x{1457}|))
(define-fun .def_115 () Bool (= .def_32 |.x{1457}|))
(define-fun .def_491 () Bool (and .def_115 .def_490))
(define-fun .def_142 () Bool (= .def_38 |.x{1460}|))
(define-fun .def_492 () Bool (and .def_142 .def_491))
(define-fun .def_399 () Int (* (- 1) |.x{1460}|))
(define-fun .def_400 () Int (+ .def_38 .def_399))
(define-fun .def_401 () Bool (= .def_400 (- 1)))
(define-fun .def_402 () Bool (or |.x{1416}| .def_401))
(define-fun .def_403 () Bool (and .def_78 .def_402))
(define-fun .def_404 () Bool (and .def_79 .def_403))
(define-fun .def_405 () Bool (and .def_83 .def_404))
(define-fun .def_406 () Bool (and .def_85 .def_405))
(define-fun .def_407 () Bool (and .def_87 .def_406))
(define-fun .def_408 () Bool (and |.loc{9}| .def_407))
(define-fun .def_409 () Bool (and .def_92 .def_408))
(define-fun .def_410 () Bool (and |.loc{11}| .def_409))
(define-fun .def_411 () Bool (and .def_232 .def_410))
(define-fun .def_412 () Bool (and .def_105 .def_411))
(define-fun .def_413 () Bool (and .def_183 .def_412))
(define-fun .def_414 () Bool (and .def_260 .def_413))
(define-fun .def_415 () Bool (and .def_107 .def_414))
(define-fun .def_416 () Bool (and .def_109 .def_415))
(define-fun .def_417 () Bool (and .def_111 .def_416))
(define-fun .def_418 () Bool (and .def_113 .def_417))
(define-fun .def_419 () Bool (and .def_144 .def_418))
(define-fun .def_493 () Bool (or .def_419 .def_492))
(define-fun .def_394 () Bool (= |.x{1460}| 0))
(define-fun .def_42 () Int (! |.x{1406}| :next |.x{1462}|))
(define-fun .def_368 () Bool (= .def_42 0))
(define-fun .def_393 () Bool (not .def_368))
(define-fun .def_395 () Bool (and .def_393 .def_394))
(define-fun .def_396 () Bool (or .def_62 .def_395))
(define-fun .def_358 () Bool (and .def_80 .def_83))
(define-fun .def_359 () Bool (and .def_68 .def_358))
(define-fun .def_360 () Bool (and .def_85 .def_359))
(define-fun .def_361 () Bool (and .def_87 .def_360))
(define-fun .def_380 () Bool (and |.loc{9}| .def_361))
(define-fun .def_381 () Bool (and .def_89 .def_380))
(define-fun .def_382 () Bool (and .def_92 .def_381))
(define-fun .def_383 () Bool (and |.loc{11}| .def_382))
(define-fun .def_384 () Bool (and .def_94 .def_383))
(define-fun .def_385 () Bool (and .def_232 .def_384))
(define-fun .def_386 () Bool (and .def_183 .def_385))
(define-fun .def_387 () Bool (and .def_260 .def_386))
(define-fun .def_388 () Bool (and .def_107 .def_387))
(define-fun .def_389 () Bool (and .def_109 .def_388))
(define-fun .def_390 () Bool (and .def_111 .def_389))
(define-fun .def_391 () Bool (and .def_113 .def_390))
(define-fun .def_392 () Bool (and .def_115 .def_391))
(define-fun .def_397 () Bool (and .def_392 .def_396))
(define-fun .def_398 () Bool (and .def_144 .def_397))
(define-fun .def_494 () Bool (or .def_398 .def_493))
(define-fun .def_369 () Bool (or .def_62 .def_368))
(define-fun .def_362 () Bool (and .def_89 .def_361))
(define-fun .def_363 () Bool (and .def_92 .def_362))
(define-fun .def_364 () Bool (and |.loc{12}| .def_363))
(define-fun .def_365 () Bool (and .def_94 .def_364))
(define-fun .def_366 () Bool (and .def_232 .def_365))
(define-fun .def_367 () Bool (and .def_96 .def_366))
(define-fun .def_370 () Bool (and .def_367 .def_369))
(define-fun .def_371 () Bool (and .def_183 .def_370))
(define-fun .def_372 () Bool (and .def_260 .def_371))
(define-fun .def_373 () Bool (and .def_107 .def_372))
(define-fun .def_374 () Bool (and .def_109 .def_373))
(define-fun .def_375 () Bool (and .def_113 .def_374))
(define-fun .def_376 () Bool (and .def_115 .def_375))
(define-fun .def_377 () Bool (and .def_117 .def_376))
(define-fun .def_378 () Bool (and .def_142 .def_377))
(define-fun .def_379 () Bool (and .def_144 .def_378))
(define-fun .def_495 () Bool (or .def_379 .def_494))
(define-fun .def_329 () Bool (and .def_68 .def_310))
(define-fun .def_330 () Bool (and .def_85 .def_329))
(define-fun .def_331 () Bool (and .def_87 .def_330))
(define-fun .def_332 () Bool (and .def_89 .def_331))
(define-fun .def_333 () Bool (and .def_92 .def_332))
(define-fun .def_334 () Bool (and |.loc{12}| .def_333))
(define-fun .def_335 () Bool (and .def_94 .def_334))
(define-fun .def_336 () Bool (and .def_232 .def_335))
(define-fun .def_337 () Bool (and .def_96 .def_336))
(define-fun .def_349 () Bool (and .def_62 .def_337))
(define-fun .def_350 () Bool (and .def_183 .def_349))
(define-fun .def_351 () Bool (and .def_107 .def_350))
(define-fun .def_352 () Bool (and .def_109 .def_351))
(define-fun .def_353 () Bool (and .def_113 .def_352))
(define-fun .def_354 () Bool (and .def_115 .def_353))
(define-fun .def_355 () Bool (and .def_117 .def_354))
(define-fun .def_356 () Bool (and .def_142 .def_355))
(define-fun .def_357 () Bool (and .def_144 .def_356))
(define-fun .def_496 () Bool (or .def_357 .def_495))
(define-fun .def_347 () Bool (or .def_62 .def_346))
(define-fun .def_338 () Bool (and .def_183 .def_337))
(define-fun .def_339 () Bool (and .def_107 .def_338))
(define-fun .def_340 () Bool (and .def_109 .def_339))
(define-fun .def_341 () Bool (and .def_113 .def_340))
(define-fun .def_342 () Bool (and .def_115 .def_341))
(define-fun .def_343 () Bool (and .def_117 .def_342))
(define-fun .def_344 () Bool (and .def_142 .def_343))
(define-fun .def_345 () Bool (and .def_144 .def_344))
(define-fun .def_348 () Bool (and .def_345 .def_347))
(define-fun .def_497 () Bool (or .def_348 .def_496))
(define-fun .def_311 () Bool (and .def_66 .def_310))
(define-fun .def_312 () Bool (and .def_85 .def_311))
(define-fun .def_313 () Bool (and .def_87 .def_312))
(define-fun .def_314 () Bool (and .def_89 .def_313))
(define-fun .def_315 () Bool (and .def_92 .def_314))
(define-fun .def_316 () Bool (and |.loc{11}| .def_315))
(define-fun .def_317 () Bool (and .def_94 .def_316))
(define-fun .def_318 () Bool (and .def_232 .def_317))
(define-fun .def_319 () Bool (and .def_62 .def_318))
(define-fun .def_320 () Bool (and .def_105 .def_319))
(define-fun .def_321 () Bool (and .def_107 .def_320))
(define-fun .def_322 () Bool (and .def_109 .def_321))
(define-fun .def_323 () Bool (and .def_111 .def_322))
(define-fun .def_324 () Bool (and .def_113 .def_323))
(define-fun .def_325 () Bool (and .def_115 .def_324))
(define-fun .def_326 () Bool (and .def_117 .def_325))
(define-fun .def_327 () Bool (and .def_142 .def_326))
(define-fun .def_328 () Bool (and .def_144 .def_327))
(define-fun .def_498 () Bool (or .def_328 .def_497))
(define-fun .def_34 () Int (! |.x{1402}| :next |.x{1458}|))
(define-fun .def_120 () Bool (<= 100000 .def_34))
(define-fun .def_307 () Bool (or .def_62 .def_120))
(define-fun .def_86 () Bool (and .def_84 .def_85))
(define-fun .def_88 () Bool (and .def_86 .def_87))
(define-fun .def_90 () Bool (and .def_88 .def_89))
(define-fun .def_295 () Bool (and .def_90 .def_92))
(define-fun .def_296 () Bool (and |.loc{11}| .def_295))
(define-fun .def_297 () Bool (and .def_94 .def_296))
(define-fun .def_298 () Bool (and .def_232 .def_297))
(define-fun .def_299 () Bool (and .def_105 .def_298))
(define-fun .def_300 () Bool (and .def_107 .def_299))
(define-fun .def_301 () Bool (and .def_109 .def_300))
(define-fun .def_302 () Bool (and .def_111 .def_301))
(define-fun .def_303 () Bool (and .def_113 .def_302))
(define-fun .def_304 () Bool (and .def_115 .def_303))
(define-fun .def_305 () Bool (and .def_117 .def_304))
(define-fun .def_306 () Bool (and .def_142 .def_305))
(define-fun .def_308 () Bool (and .def_306 .def_307))
(define-fun .def_309 () Bool (and .def_144 .def_308))
(define-fun .def_499 () Bool (or .def_309 .def_498))
(define-fun .def_138 () Bool (= .def_34 |.x{1458}|))
(define-fun .def_500 () Bool (and .def_138 .def_499))
(define-fun .def_36 () Int (! |.x{1403}| :next |.x{1459}|))
(define-fun .def_140 () Bool (= .def_36 |.x{1459}|))
(define-fun .def_501 () Bool (and .def_140 .def_500))
(define-fun .def_285 () Int (* (- 1) |.x{1458}|))
(define-fun .def_286 () Int (+ .def_34 .def_285))
(define-fun .def_287 () Bool (= .def_286 (- 1)))
(define-fun .def_288 () Bool (or .def_62 .def_287))
(define-fun .def_272 () Bool (and .def_85 .def_247))
(define-fun .def_273 () Bool (and .def_87 .def_272))
(define-fun .def_274 () Bool (and |.loc{9}| .def_273))
(define-fun .def_275 () Bool (and .def_89 .def_274))
(define-fun .def_276 () Bool (and |.loc{10}| .def_275))
(define-fun .def_277 () Bool (and .def_92 .def_276))
(define-fun .def_278 () Bool (and .def_94 .def_277))
(define-fun .def_279 () Bool (and .def_96 .def_278))
(define-fun .def_280 () Bool (and .def_105 .def_279))
(define-fun .def_281 () Bool (and .def_260 .def_280))
(define-fun .def_282 () Bool (and .def_107 .def_281))
(define-fun .def_283 () Bool (and .def_109 .def_282))
(define-fun .def_289 () Bool (and .def_283 .def_288))
(define-fun .def_290 () Bool (and .def_111 .def_289))
(define-fun .def_291 () Bool (and .def_113 .def_290))
(define-fun .def_292 () Bool (and .def_115 .def_291))
(define-fun .def_293 () Bool (and .def_142 .def_292))
(define-fun .def_294 () Bool (and .def_144 .def_293))
(define-fun .def_502 () Bool (or .def_294 .def_501))
(define-fun .def_257 () Bool (not .def_256))
(define-fun .def_258 () Bool (or .def_62 .def_257))
(define-fun .def_250 () Bool (and .def_87 .def_249))
(define-fun .def_251 () Bool (and .def_89 .def_250))
(define-fun .def_252 () Bool (and .def_92 .def_251))
(define-fun .def_253 () Bool (and .def_94 .def_252))
(define-fun .def_254 () Bool (and .def_232 .def_253))
(define-fun .def_255 () Bool (and .def_96 .def_254))
(define-fun .def_259 () Bool (and .def_255 .def_258))
(define-fun .def_261 () Bool (and .def_259 .def_260))
(define-fun .def_262 () Bool (and .def_107 .def_261))
(define-fun .def_263 () Bool (and .def_109 .def_262))
(define-fun .def_264 () Bool (and .def_111 .def_263))
(define-fun .def_265 () Bool (and .def_113 .def_264))
(define-fun .def_266 () Bool (and .def_115 .def_265))
(define-fun .def_267 () Bool (and .def_117 .def_266))
(define-fun .def_268 () Bool (and .def_138 .def_267))
(define-fun .def_269 () Bool (and .def_140 .def_268))
(define-fun .def_270 () Bool (and .def_142 .def_269))
(define-fun .def_271 () Bool (and .def_144 .def_270))
(define-fun .def_503 () Bool (or .def_271 .def_502))
(define-fun .def_228 () Bool (and .def_87 .def_227))
(define-fun .def_229 () Bool (and .def_89 .def_228))
(define-fun .def_230 () Bool (and .def_92 .def_229))
(define-fun .def_231 () Bool (and .def_94 .def_230))
(define-fun .def_233 () Bool (and .def_231 .def_232))
(define-fun .def_234 () Bool (and .def_96 .def_233))
(define-fun .def_235 () Bool (and .def_62 .def_234))
(define-fun .def_236 () Bool (and .def_107 .def_235))
(define-fun .def_237 () Bool (and .def_109 .def_236))
(define-fun .def_238 () Bool (and .def_111 .def_237))
(define-fun .def_239 () Bool (and .def_113 .def_238))
(define-fun .def_240 () Bool (and .def_115 .def_239))
(define-fun .def_241 () Bool (and .def_117 .def_240))
(define-fun .def_242 () Bool (and .def_138 .def_241))
(define-fun .def_243 () Bool (and .def_140 .def_242))
(define-fun .def_244 () Bool (and .def_142 .def_243))
(define-fun .def_245 () Bool (and .def_144 .def_244))
(define-fun .def_504 () Bool (or .def_245 .def_503))
(define-fun .def_508 () Bool (and .def_504 .def_507))
(define-fun .def_98 () Bool (= .def_16 |.x{1449}|))
(define-fun .def_509 () Bool (and .def_98 .def_508))
(define-fun .def_101 () Bool (= .def_20 |.x{1451}|))
(define-fun .def_510 () Bool (and .def_101 .def_509))
(define-fun .def_103 () Bool (= .def_24 |.x{1453}|))
(define-fun .def_511 () Bool (and .def_103 .def_510))
(define-fun .def_146 () Bool (= .def_42 |.x{1462}|))
(define-fun .def_512 () Bool (and .def_146 .def_511))
(define-fun .def_219 () Bool (<= |.x{1445}| |.x{1467}|))
(define-fun .def_220 () Bool (not .def_219))
(define-fun .def_216 () Bool (<= |.x{1445}| |.x{1455}|))
(define-fun .def_217 () Bool (not .def_216))
(define-fun .def_206 () (Array Int Int) (store .def_20 |.x{1467}| 400000))
(define-fun .def_207 () (Array Int Int) (store .def_206 |.x{1455}| 400000))
(define-fun .def_208 () Bool (= |.x{1451}| .def_207))
(define-fun .def_203 () Bool (= |.x{1458}| 0))
(define-fun .def_201 () Int (select |.x{111}| |.x{1467}|))
(define-fun .def_202 () Bool (= .def_201 0))
(define-fun .def_204 () Bool (and .def_202 .def_203))
(define-fun .def_209 () Bool (and .def_204 .def_208))
(define-fun .def_193 () (Array Int Int) (store |.x{111}| |.x{1467}| 1))
(define-fun .def_199 () (Array Int Int) (store .def_193 |.x{1455}| 1))
(define-fun .def_200 () Bool (= |.x{1446}| .def_199))
(define-fun .def_210 () Bool (and .def_200 .def_209))
(define-fun .def_197 () Bool (= |.x{1467}| 0))
(define-fun .def_198 () Bool (not .def_197))
(define-fun .def_211 () Bool (and .def_198 .def_210))
(define-fun .def_196 () Bool (= |.x{1462}| 1))
(define-fun .def_212 () Bool (and .def_196 .def_211))
(define-fun .def_194 () Int (select .def_193 |.x{1455}|))
(define-fun .def_195 () Bool (= .def_194 0))
(define-fun .def_213 () Bool (and .def_195 .def_212))
(define-fun .def_191 () Bool (= |.x{1463}| 0))
(define-fun .def_214 () Bool (and .def_191 .def_213))
(define-fun .def_189 () Bool (= |.x{1455}| 0))
(define-fun .def_190 () Bool (not .def_189))
(define-fun .def_215 () Bool (and .def_190 .def_214))
(define-fun .def_218 () Bool (and .def_215 .def_217))
(define-fun .def_221 () Bool (and .def_218 .def_220))
(define-fun .def_188 () Bool (= |.x{1465}| 0))
(define-fun .def_222 () Bool (and .def_188 .def_221))
(define-fun .def_223 () Bool (or |.x{1416}| .def_222))
(define-fun .def_172 () Bool (= |.x{1453}| 0))
(define-fun .def_171 () Bool (= |.x{1449}| 0))
(define-fun .def_173 () Bool (and .def_171 .def_172))
(define-fun .def_168 () (Array Int Int) (store .def_10 0 0))
(define-fun .def_170 () Bool (= .def_168 |.x{111}|))
(define-fun .def_174 () Bool (and .def_170 .def_173))
(define-fun .def_175 () Bool (or .def_62 .def_174))
(define-fun .def_176 () Bool (and .def_64 .def_175))
(define-fun .def_177 () Bool (and .def_85 .def_176))
(define-fun .def_178 () Bool (and .def_87 .def_177))
(define-fun .def_179 () Bool (and |.loc{9}| .def_178))
(define-fun .def_180 () Bool (and |.loc{10}| .def_179))
(define-fun .def_181 () Bool (and .def_96 .def_180))
(define-fun .def_182 () Bool (and .def_105 .def_181))
(define-fun .def_184 () Bool (and .def_182 .def_183))
(define-fun .def_185 () Bool (and .def_109 .def_184))
(define-fun .def_186 () Bool (and .def_111 .def_185))
(define-fun .def_187 () Bool (and .def_113 .def_186))
(define-fun .def_224 () Bool (and .def_187 .def_223))
(define-fun .def_225 () Bool (and .def_144 .def_224))
(define-fun .def_513 () Bool (or .def_225 .def_512))
(define-fun .def_74 () Bool (= |.x{618}| |.x{616}|))
(define-fun .def_152 () Bool (not .def_74))
(define-fun .def_151 () Bool (= |.x{1462}| 0))
(define-fun .def_153 () Bool (and .def_151 .def_152))
(define-fun .def_154 () Bool (or |.x{1416}| .def_153))
(define-fun .def_91 () Bool (and |.loc{10}| .def_90))
(define-fun .def_93 () Bool (and .def_91 .def_92))
(define-fun .def_95 () Bool (and .def_93 .def_94))
(define-fun .def_97 () Bool (and .def_95 .def_96))
(define-fun .def_99 () Bool (and .def_97 .def_98))
(define-fun .def_148 () Bool (and .def_99 .def_101))
(define-fun .def_149 () Bool (and .def_103 .def_148))
(define-fun .def_155 () Bool (and .def_149 .def_154))
(define-fun .def_156 () Bool (and .def_105 .def_155))
(define-fun .def_157 () Bool (and .def_107 .def_156))
(define-fun .def_158 () Bool (and .def_109 .def_157))
(define-fun .def_159 () Bool (and .def_111 .def_158))
(define-fun .def_160 () Bool (and .def_113 .def_159))
(define-fun .def_161 () Bool (and .def_115 .def_160))
(define-fun .def_162 () Bool (and .def_117 .def_161))
(define-fun .def_123 () Int (* 4 .def_34))
(define-fun .def_132 () Int (+ .def_123 .def_44))
(define-fun .def_133 () Int (select .def_131 .def_132))
(define-fun .def_134 () Bool (= |.x{616}| .def_133))
(define-fun .def_126 () Int (+ .def_123 .def_48))
(define-fun .def_127 () Int (select .def_125 .def_126))
(define-fun .def_128 () Bool (= |.x{618}| .def_127))
(define-fun .def_121 () Bool (not .def_120))
(define-fun .def_129 () Bool (and .def_121 .def_128))
(define-fun .def_135 () Bool (and .def_129 .def_134))
(define-fun .def_136 () Bool (or .def_62 .def_135))
(define-fun .def_163 () Bool (and .def_136 .def_162))
(define-fun .def_164 () Bool (and .def_138 .def_163))
(define-fun .def_165 () Bool (and .def_140 .def_164))
(define-fun .def_166 () Bool (and .def_142 .def_165))
(define-fun .def_167 () Bool (and .def_144 .def_166))
(define-fun .def_514 () Bool (or .def_167 .def_513))
(define-fun .def_75 () Bool (or |.x{1416}| .def_74))
(define-fun .def_100 () Bool (and .def_75 .def_99))
(define-fun .def_102 () Bool (and .def_100 .def_101))
(define-fun .def_104 () Bool (and .def_102 .def_103))
(define-fun .def_106 () Bool (and .def_104 .def_105))
(define-fun .def_108 () Bool (and .def_106 .def_107))
(define-fun .def_110 () Bool (and .def_108 .def_109))
(define-fun .def_112 () Bool (and .def_110 .def_111))
(define-fun .def_114 () Bool (and .def_112 .def_113))
(define-fun .def_116 () Bool (and .def_114 .def_115))
(define-fun .def_118 () Bool (and .def_116 .def_117))
(define-fun .def_137 () Bool (and .def_118 .def_136))
(define-fun .def_139 () Bool (and .def_137 .def_138))
(define-fun .def_141 () Bool (and .def_139 .def_140))
(define-fun .def_143 () Bool (and .def_141 .def_142))
(define-fun .def_145 () Bool (and .def_143 .def_144))
(define-fun .def_147 () Bool (and .def_145 .def_146))
(define-fun .def_515 () Bool (or .def_147 .def_514))
(define-fun .def_527 () Bool (! (and .def_515 .def_526) :trans true))
(define-fun .def_541 () Bool (and .def_70 .def_538))
(define-fun .def_542 () Bool (and .def_62 .def_541))
(define-fun .def_543 () Bool (! (not .def_542) :invar-property 0))
(assert true)
